output/fertilization_ilp.mps
NAME fertilization_srl_ilp
* Max problem is converted into Min one
ROWS
 N  OBJ
 L  constraint1_6610
 L  constraint1_3651
 L  constraint1_3650
 L  constraint1_3653
 L  constraint1_3652
 L  constraint1_3655
 L  constraint1_3654
 L  constraint2_6610
 L  constraint2_6611
 L  constraint2_6612
 L  constraint2_6613
 L  constraint2_3650
 L  constraint2_3651
 L  constraint2_3652
 L  constraint2_3653
COLUMNS
    MARKER    'MARKER'                 'INTORG'
    Z_661_0_0  OBJ       -9.1176978853908049e-04
    Z_661_0_0  constraint1_6610  1
    Z_661_0_0  constraint2_6610  1
    Z_661_0_1  OBJ       -1.6991418462460643e-03
    Z_661_0_1  constraint1_6610  1
    Z_661_0_1  constraint2_6611  1
    Z_661_0_2  OBJ       -5.4801425714973129e-01
    Z_661_0_2  constraint1_6610  1
    Z_661_0_2  constraint2_6612  1
    Z_661_0_3  OBJ       -1.5641565089931472e-03
    Z_661_0_3  constraint1_6610  1
    Z_661_0_3  constraint2_6613  1
    Z_661_0_4  OBJ       -3.4781067470649052e-01
    Z_661_0_4  constraint1_6610  1
    Z_365_1_0  OBJ       -1.5991634632490828e-03
    Z_365_1_0  constraint1_3651  1
    Z_365_1_0  constraint2_3650  1
    Z_365_1_1  OBJ       -2.9756481336493559e-03
    Z_365_1_1  constraint1_3651  1
    Z_365_1_1  constraint2_3651  1
    Z_365_1_2  OBJ       -3.7885375984054986e-01
    Z_365_1_2  constraint1_3651  1
    Z_365_1_2  constraint2_3652  1
    Z_365_1_3  OBJ       -9.2380795307868448e-03
    Z_365_1_3  constraint1_3651  1
    Z_365_1_3  constraint2_3653  1
    Z_365_1_4  OBJ       -5.0733334903176486e-01
    Z_365_1_4  constraint1_3651  1
    Z_365_0_0  OBJ       -1.5991634632490828e-03
    Z_365_0_0  constraint1_3650  1
    Z_365_0_0  constraint2_3650  1
    Z_365_0_1  OBJ       -2.9756481336493559e-03
    Z_365_0_1  constraint1_3650  1
    Z_365_0_1  constraint2_3651  1
    Z_365_0_2  OBJ       -3.7885375984054986e-01
    Z_365_0_2  constraint1_3650  1
    Z_365_0_2  constraint2_3652  1
    Z_365_0_3  OBJ       -9.2380795307868448e-03
    Z_365_0_3  constraint1_3650  1
    Z_365_0_3  constraint2_3653  1
    Z_365_0_4  OBJ       -5.0733334903176486e-01
    Z_365_0_4  constraint1_3650  1
    Z_365_3_0  OBJ       -9.3514235562117652e-03
    Z_365_3_0  constraint1_3653  1
    Z_365_3_0  constraint2_3650  1
    Z_365_3_1  OBJ       -3.9023146180117889e-03
    Z_365_3_1  constraint1_3653  1
    Z_365_3_1  constraint2_3651  1
    Z_365_3_2  OBJ       -2.2717673551142889e-02
    Z_365_3_2  constraint1_3653  1
    Z_365_3_2  constraint2_3652  1
    Z_365_3_3  OBJ       -8.8386196519468479e-03
    Z_365_3_3  constraint1_3653  1
    Z_365_3_3  constraint2_3653  1
    Z_365_3_4  OBJ       -8.5518996862268670e-01
    Z_365_3_4  constraint1_3653  1
    Z_365_2_0  OBJ       -7.4004662116412032e-02
    Z_365_2_0  constraint1_3652  1
    Z_365_2_0  constraint2_3650  1
    Z_365_2_1  OBJ       -5.8758706223901967e-02
    Z_365_2_1  constraint1_3652  1
    Z_365_2_1  constraint2_3651  1
    Z_365_2_2  OBJ       -7.5566056043281432e-03
    Z_365_2_2  constraint1_3652  1
    Z_365_2_2  constraint2_3652  1
    Z_365_2_3  OBJ       -1.0901309618163986e-01
    Z_365_2_3  constraint1_3652  1
    Z_365_2_3  constraint2_3653  1
    Z_365_2_4  OBJ       -6.5066692987371799e-01
    Z_365_2_4  constraint1_3652  1
    Z_365_5_0  OBJ       -6.7358857929403104e-02
    Z_365_5_0  constraint1_3655  1
    Z_365_5_0  constraint2_3650  1
    Z_365_5_1  OBJ       -1.0916599920551927e-02
    Z_365_5_1  constraint1_3655  1
    Z_365_5_1  constraint2_3651  1
    Z_365_5_2  OBJ       -9.6117641270043273e-03
    Z_365_5_2  constraint1_3655  1
    Z_365_5_2  constraint2_3652  1
    Z_365_5_3  OBJ       -9.4790306418174337e-03
    Z_365_5_3  constraint1_3655  1
    Z_365_5_3  constraint2_3653  1
    Z_365_5_4  OBJ       -8.0263374738122328e-01
    Z_365_5_4  constraint1_3655  1
    Z_365_4_0  OBJ       -2.0881316170294258e-02
    Z_365_4_0  constraint1_3654  1
    Z_365_4_0  constraint2_3650  1
    Z_365_4_1  OBJ       -3.1178017338468686e-02
    Z_365_4_1  constraint1_3654  1
    Z_365_4_1  constraint2_3651  1
    Z_365_4_2  OBJ       -1.8847045371518111e-02
    Z_365_4_2  constraint1_3654  1
    Z_365_4_2  constraint2_3652  1
    Z_365_4_3  OBJ       -6.1527057553314217e-02
    Z_365_4_3  constraint1_3654  1
    Z_365_4_3  constraint2_3653  1
    Z_365_4_4  OBJ       -7.6756656356640474e-01
    Z_365_4_4  constraint1_3654  1
    MARKER    'MARKER'                 'INTEND'
RHS
    RHS1      constraint1_6610  1
    RHS1      constraint1_3651  1
    RHS1      constraint1_3650  1
    RHS1      constraint1_3653  1
    RHS1      constraint1_3652  1
    RHS1      constraint1_3655  1
    RHS1      constraint1_3654  1
    RHS1      constraint2_6610  1
    RHS1      constraint2_6611  1
    RHS1      constraint2_6612  1
    RHS1      constraint2_6613  1
    RHS1      constraint2_3650  1
    RHS1      constraint2_3651  1
    RHS1      constraint2_3652  1
    RHS1      constraint2_3653  1
BOUNDS
 UP BND1      Z_661_0_0  1
 UP BND1      Z_661_0_1  1
 UP BND1      Z_661_0_2  1
 UP BND1      Z_661_0_3  1
 UP BND1      Z_661_0_4  1
 UP BND1      Z_365_1_0  1
 UP BND1      Z_365_1_1  1
 UP BND1      Z_365_1_2  1
 UP BND1      Z_365_1_3  1
 UP BND1      Z_365_1_4  1
 UP BND1      Z_365_0_0  1
 UP BND1      Z_365_0_1  1
 UP BND1      Z_365_0_2  1
 UP BND1      Z_365_0_3  1
 UP BND1      Z_365_0_4  1
 UP BND1      Z_365_3_0  1
 UP BND1      Z_365_3_1  1
 UP BND1      Z_365_3_2  1
 UP BND1      Z_365_3_3  1
 UP BND1      Z_365_3_4  1
 UP BND1      Z_365_2_0  1
 UP BND1      Z_365_2_1  1
 UP BND1      Z_365_2_2  1
 UP BND1      Z_365_2_3  1
 UP BND1      Z_365_2_4  1
 UP BND1      Z_365_5_0  1
 UP BND1      Z_365_5_1  1
 UP BND1      Z_365_5_2  1
 UP BND1      Z_365_5_3  1
 UP BND1      Z_365_5_4  1
 UP BND1      Z_365_4_0  1
 UP BND1      Z_365_4_1  1
 UP BND1      Z_365_4_2  1
 UP BND1      Z_365_4_3  1
 UP BND1      Z_365_4_4  1
ENDATA
