output/fertilization_ilp.sol
# Solution for model fertilization_srl_ilp
# Objective value = 4.6387381646572940e+00
Z_661_0_0 0
Z_661_0_1 0
Z_661_0_2 1
Z_661_0_3 0
Z_661_0_4 0
Z_365_1_0 0
Z_365_1_1 0
Z_365_1_2 0
Z_365_1_3 0
Z_365_1_4 1
Z_365_0_0 0
Z_365_0_1 0
Z_365_0_2 0
Z_365_0_3 0
Z_365_0_4 1
Z_365_3_0 0
Z_365_3_1 0
Z_365_3_2 0
Z_365_3_3 0
Z_365_3_4 1
Z_365_2_0 0
Z_365_2_1 0
Z_365_2_2 0
Z_365_2_3 0
Z_365_2_4 1
Z_365_5_0 0
Z_365_5_1 0
Z_365_5_2 0
Z_365_5_3 0
Z_365_5_4 1
Z_365_4_0 0
Z_365_4_1 0
Z_365_4_2 0
Z_365_4_3 0
Z_365_4_4 1
